\ENCODING=ISO-8859-1
\Problem name: ilog.cplex

Maximize
 obj: 727 x(0)#0 + 711 x(1)#1 + 911 x(2)#2 + 679 x(3)#3 + 955 x(4)#4
      + 801 x(5)#5 + 651 x(6)#6 + 544 x(7)#7 + 1006 x(8)#8 + 751 x(9)#9
      + 1167 x(10)#10 + 622 x(11)#11 + 798 x(12)#12 + 840 x(13)#13
      + 659 x(14)#14 + 936 x(15)#15 + 440 x(16)#16 + 755 x(17)#17
      + 911 x(18)#18 + 866 x(19)#19 + 760 x(20)#20 + 1132 x(21)#21
      + 691 x(22)#22 + 629 x(23)#23 + 864 x(24)#24 + 576 x(25)#25
      + 709 x(26)#26 + 563 x(27)#27 + 365 x(28)#28 + 563 x(29)#29
      + 608 x(30)#30 + 681 x(31)#31 + 1138 x(32)#32 + 534 x(33)#33
      + 902 x(34)#34 + 870 x(35)#35 + 988 x(36)#36 + 546 x(37)#37
      + 872 x(38)#38 + 885 x(39)#39 + 938 x(40)#40 + 1006 x(41)#41
      + 525 x(42)#42 + 617 x(43)#43 + 857 x(44)#44 + 1020 x(45)#45
      + 704 x(46)#46 + 684 x(47)#47 + 1102 x(48)#48 + 550 x(49)#49
      + 728 x(50)#50 + 872 x(51)#51 + 820 x(52)#52 + 457 x(53)#53
      + 670 x(54)#54 + 988 x(55)#55 + 864 x(56)#56 + 818 x(57)#57
      + 652 x(58)#58 + 633 x(59)#59 + 858 x(60)#60 + 697 x(61)#61
      + 442 x(62)#62 + 557 x(63)#63 + 696 x(64)#64 + 639 x(65)#65
      + 789 x(66)#66 + 606 x(67)#67 + 1034 x(68)#68 + 875 x(69)#69
      + 866 x(70)#70 + 701 x(71)#71 + 584 x(72)#72 + 904 x(73)#73
      + 930 x(74)#74 + 459 x(75)#75 + 880 x(76)#76 + 1045 x(77)#77
      + 446 x(78)#78 + 846 x(79)#79 + 1038 x(80)#80 + 461 x(81)#81
      + 793 x(82)#82 + 700 x(83)#83 + 597 x(84)#84 + 619 x(85)#85
      + 478 x(86)#86 + 808 x(87)#87 + 816 x(88)#88 + 734 x(89)#89
      + 1027 x(90)#90 + 609 x(91)#91 + 770 x(92)#92 + 657 x(93)#93
      + 925 x(94)#94 + 708 x(95)#95 + 431 x(96)#96 + 982 x(97)#97
      + 780 x(98)#98 + 163 x(99)#99 + 559 x(100)#100 + 818 x(101)#101
      + 875 x(102)#102 + 619 x(103)#103 + 604 x(104)#104 + 988 x(105)#105
      + 343 x(106)#106 + 607 x(107)#107 + 512 x(108)#108 + 825 x(109)#109
      + 938 x(110)#110 + 731 x(111)#111 + 1337 x(112)#112 + 589 x(113)#113
      + 985 x(114)#114 + 548 x(115)#115 + 447 x(116)#116 + 410 x(117)#117
      + 819 x(118)#118 + 496 x(119)#119 + 817 x(120)#120 + 577 x(121)#121
      + 593 x(122)#122 + 797 x(123)#123 + 385 x(124)#124 + 868 x(125)#125
      + 788 x(126)#126 + 965 x(127)#127 + 729 x(128)#128 + 456 x(129)#129
      + 736 x(130)#130 + 953 x(131)#131 + 949 x(132)#132 + 687 x(133)#133
      + 745 x(134)#134 + 1050 x(135)#135 + 684 x(136)#136 + 562 x(137)#137
      + 548 x(138)#138 + 854 x(139)#139 + 935 x(140)#140 + 768 x(141)#141
      + 958 x(142)#142 + 1036 x(143)#143 + 839 x(144)#144 + 610 x(145)#145
      + 899 x(146)#146 + 495 x(147)#147 + 775 x(148)#148 + 702 x(149)#149
      + 571 x(150)#150 + 1107 x(151)#151 + 437 x(152)#152 + 733 x(153)#153
      + 728 x(154)#154 + 625 x(155)#155 + 1043 x(156)#156 + 680 x(157)#157
      + 928 x(158)#158 + 876 x(159)#159 + 678 x(160)#160 + 521 x(161)#161
      + 917 x(162)#162 + 944 x(163)#163 + 590 x(164)#164 + 877 x(165)#165
      + 796 x(166)#166 + 581 x(167)#167 + 704 x(168)#168 + 386 x(169)#169
      + 824 x(170)#170 + 552 x(171)#171 + 862 x(172)#172 + 579 x(173)#173
      + 907 x(174)#174 + 1088 x(175)#175 + 792 x(176)#176 + 444 x(177)#177
      + 644 x(178)#178 + 581 x(179)#179 + 586 x(180)#180 + 733 x(181)#181
      + 433 x(182)#182 + 651 x(183)#183 + 1170 x(184)#184 + 897 x(185)#185
      + 908 x(186)#186 + 488 x(187)#187 + 889 x(188)#188 + 881 x(189)#189
      + 549 x(190)#190 + 1156 x(191)#191 + 847 x(192)#192 + 435 x(193)#193
      + 556 x(194)#194 + 716 x(195)#195 + 908 x(196)#196 + 778 x(197)#197
      + 691 x(198)#198 + 699 x(199)#199 + 901 x(200)#200 + 679 x(201)#201
      + 586 x(202)#202 + 729 x(203)#203 + 1099 x(204)#204 + 893 x(205)#205
      + 823 x(206)#206 + 827 x(207)#207 + 1104 x(208)#208 + 637 x(209)#209
      + 710 x(210)#210 + 403 x(211)#211 + 542 x(212)#212 + 978 x(213)#213
      + 891 x(214)#214 + 968 x(215)#215 + 837 x(216)#216 + 979 x(217)#217
      + 526 x(218)#218 + 670 x(219)#219 + 637 x(220)#220 + 765 x(221)#221
      + 792 x(222)#222 + 702 x(223)#223 + 982 x(224)#224 + 604 x(225)#225
      + 901 x(226)#226 + 979 x(227)#227 + 610 x(228)#228 + 493 x(229)#229
      + 981 x(230)#230 + 665 x(231)#231 + 581 x(232)#232 + 753 x(233)#233
      + 468 x(234)#234 + 607 x(235)#235 + 526 x(236)#236 + 734 x(237)#237
      + 681 x(238)#238 + 848 x(239)#239 + 463 x(240)#240 + 762 x(241)#241
      + 731 x(242)#242 + 891 x(243)#243 + 962 x(244)#244 + 576 x(245)#245
      + 376 x(246)#246 + 720 x(247)#247 + 997 x(248)#248 + 931 x(249)#249
Subject To
 c1: 489 x(0)#0 + 50 x(1)#1 + 344 x(2)#2 + 58 x(3)#3 + 152 x(4)#4 + 474 x(5)#5
     + 186 x(6)#6 + 156 x(7)#7 + 158 x(8)#8 + 206 x(9)#9 + 322 x(10)#10
     + 686 x(11)#11 + 178 x(12)#12 + 713 x(13)#13 + 755 x(14)#14 + 856 x(15)#15
     + 557 x(16)#16 + 903 x(17)#17 + 714 x(18)#18 + 621 x(19)#19 + 476 x(20)#20
     + 977 x(21)#21 + 602 x(22)#22 + 433 x(23)#23 + 172 x(24)#24 + 21 x(25)#25
     + 539 x(26)#26 + 236 x(27)#27 + 185 x(28)#28 + 467 x(29)#29 + 354 x(30)#30
     + 667 x(31)#31 + 876 x(32)#32 + 255 x(33)#33 + 104 x(34)#34 + 851 x(35)#35
     + 280 x(36)#36 + 425 x(37)#37 + 954 x(38)#38 + 724 x(39)#39 + 444 x(40)#40
     + 590 x(41)#41 + 179 x(42)#42 + 671 x(43)#43 + 469 x(44)#44 + 716 x(45)#45
     + 683 x(46)#46 + 272 x(47)#47 + 971 x(48)#48 + 744 x(49)#49 + 85 x(50)#50
     + 913 x(51)#51 + 520 x(52)#52 + 840 x(53)#53 + 83 x(54)#54 + 404 x(55)#55
     + 39 x(56)#56 + 832 x(57)#57 + 915 x(58)#58 + 158 x(59)#59 + 875 x(60)#60
     + 693 x(61)#61 + 166 x(62)#62 + 28 x(63)#63 + 714 x(64)#64 + 3 x(65)#65
     + 45 x(66)#66 + 215 x(67)#67 + 110 x(68)#68 + 710 x(69)#69 + 762 x(70)#70
     + 63 x(71)#71 + 674 x(72)#72 + 914 x(73)#73 + 847 x(74)#74 + 281 x(75)#75
     + 732 x(76)#76 + 275 x(77)#77 + 305 x(78)#78 + 544 x(79)#79 + 622 x(80)#80
     + 788 x(81)#81 + 170 x(82)#82 + 613 x(83)#83 + 677 x(84)#84 + 513 x(85)#85
     + 137 x(86)#86 + 486 x(87)#87 + 694 x(88)#88 + 619 x(89)#89 + 786 x(90)#90
     + 567 x(91)#91 + 612 x(92)#92 + 127 x(93)#93 + 421 x(94)#94 + 490 x(95)#95
     + 442 x(96)#96 + 733 x(97)#97 + 663 x(98)#98 + 8 x(99)#99 + 80 x(100)#100
     + 304 x(101)#101 + 91 x(102)#102 + 406 x(103)#103 + 208 x(104)#104
     + 947 x(105)#105 + 7 x(106)#106 + 461 x(107)#107 + 77 x(108)#108
     + 598 x(109)#109 + 414 x(110)#110 + 594 x(111)#111 + 833 x(112)#112
     + 635 x(113)#113 + 408 x(114)#114 + 24 x(115)#115 + 3 x(116)#116
     + 939 x(117)#117 + 300 x(118)#118 + 94 x(119)#119 + 762 x(120)#120
     + 391 x(121)#121 + 768 x(122)#122 + 165 x(123)#123 + 44 x(124)#124
     + 96 x(125)#125 + 814 x(126)#126 + 613 x(127)#127 + 492 x(128)#128
     + 205 x(129)#129 + 648 x(130)#130 + 676 x(131)#131 + 936 x(132)#132
     + 888 x(133)#133 + 373 x(134)#134 + 655 x(135)#135 + 398 x(136)#136
     + 471 x(137)#137 + 370 x(138)#138 + 908 x(139)#139 + 690 x(140)#140
     + 292 x(141)#141 + 610 x(142)#142 + 780 x(143)#143 + 377 x(144)#144
     + 667 x(145)#145 + 808 x(146)#146 + 740 x(147)#147 + 930 x(148)#148
     + 999 x(149)#149 + 523 x(150)#150 + 926 x(151)#151 + 17 x(152)#152
     + 707 x(153)#153 + 903 x(154)#154 + 249 x(155)#155 + 355 x(156)#156
     + 257 x(157)#157 + 690 x(158)#158 + 397 x(159)#159 + 521 x(160)#160
     + 196 x(161)#161 + 254 x(162)#162 + 493 x(163)#163 + 957 x(164)#164
     + 773 x(165)#165 + 79 x(166)#166 + 458 x(167)#167 + 749 x(168)#168
     + 289 x(169)#169 + 609 x(170)#170 + 516 x(171)#171 + 522 x(172)#172
     + 365 x(173)#173 + 444 x(174)#174 + 512 x(175)#175 + 487 x(176)#176
     + 55 x(177)#177 + 106 x(178)#178 + 247 x(179)#179 + 890 x(180)#180
     + 204 x(181)#181 + 174 x(182)#182 + 116 x(183)#183 + 925 x(184)#184
     + 680 x(185)#185 + 797 x(186)#186 + 475 x(187)#187 + 337 x(188)#188
     + 737 x(189)#189 + 505 x(190)#190 + 818 x(191)#191 + 799 x(192)#192
     + 34 x(193)#193 + 465 x(194)#194 + 857 x(195)#195 + 799 x(196)#196
     + 208 x(197)#197 + 403 x(198)#198 + 745 x(199)#199 + 220 x(200)#200
     + 519 x(201)#201 + 196 x(202)#202 + 470 x(203)#203 + 901 x(204)#204
     + 530 x(205)#205 + 813 x(206)#206 + 868 x(207)#207 + 316 x(208)#208
     + 516 x(209)#209 + 766 x(210)#210 + 91 x(211)#211 + 460 x(212)#212
     + 770 x(213)#213 + 967 x(214)#214 + 545 x(215)#215 + 709 x(216)#216
     + 901 x(217)#217 + 251 x(218)#218 + 92 x(219)#219 + 551 x(220)#220
     + 528 x(221)#221 + 363 x(222)#222 + 596 x(223)#223 + 128 x(224)#224
     + 294 x(225)#225 + 763 x(226)#226 + 530 x(227)#227 + 654 x(228)#228
     + 608 x(229)#229 + 342 x(230)#230 + 579 x(231)#231 + 459 x(232)#232
     + 833 x(233)#233 + 99 x(234)#234 + 82 x(235)#235 + 691 x(236)#236
     + 130 x(237)#237 + 493 x(238)#238 + 905 x(239)#239 + 239 x(240)#240
     + 324 x(241)#241 + 51 x(242)#242 + 710 x(243)#243 + 983 x(244)#244
     + 546 x(245)#245 + 724 x(246)#246 + 302 x(247)#247 + 977 x(248)#248
     + 50 x(249)#249 <= 61438
 c2: 632 x(0)#0 + 706 x(1)#1 + 932 x(2)#2 + 95 x(3)#3 + 711 x(4)#4 + 427 x(5)#5
     + 691 x(6)#6 + 176 x(7)#7 + 658 x(8)#8 + 94 x(9)#9 + 554 x(10)#10
     + 22 x(11)#11 + 851 x(12)#12 + 72 x(13)#13 + 802 x(14)#14 + 384 x(15)#15
     + 781 x(16)#16 + 488 x(17)#17 + 829 x(18)#18 + 910 x(19)#19 + 675 x(20)#20
     + 960 x(21)#21 + 784 x(22)#22 + 231 x(23)#23 + 722 x(24)#24 + 369 x(25)#25
     + 643 x(26)#26 + 315 x(27)#27 + 222 x(28)#28 + 217 x(29)#29 + 793 x(30)#30
     + 360 x(31)#31 + 805 x(32)#32 + 518 x(33)#33 + 720 x(34)#34 + 997 x(35)#35
     + 949 x(36)#36 + 447 x(37)#37 + 896 x(38)#38 + 825 x(39)#39 + 159 x(40)#40
     + 494 x(41)#41 + 836 x(42)#42 + 665 x(43)#43 + 456 x(44)#44 + 776 x(45)#45
     + 578 x(46)#46 + 179 x(47)#47 + 507 x(48)#48 + 952 x(49)#49 + 89 x(50)#50
     + 317 x(51)#51 + 896 x(52)#52 + 39 x(53)#53 + 239 x(54)#54 + 612 x(55)#55
     + 803 x(56)#56 + 461 x(57)#57 + 928 x(58)#58 + 262 x(59)#59 + 276 x(60)#60
     + 331 x(61)#61 + 446 x(62)#62 + 78 x(63)#63 + 594 x(64)#64 + 88 x(65)#65
     + 923 x(66)#66 + 35 x(67)#67 + 823 x(68)#68 + 303 x(69)#69 + 607 x(70)#70
     + 240 x(71)#71 + 537 x(72)#72 + 803 x(73)#73 + 906 x(74)#74 + 225 x(75)#75
     + 102 x(76)#76 + 986 x(77)#77 + 265 x(78)#78 + 474 x(79)#79 + 965 x(80)#80
     + 98 x(81)#81 + 321 x(82)#82 + 431 x(83)#83 + 340 x(84)#84 + 895 x(85)#85
     + 508 x(86)#86 + 555 x(87)#87 + 45 x(88)#88 + 200 x(89)#89 + 934 x(90)#90
     + 738 x(91)#91 + 192 x(92)#92 + 196 x(93)#93 + 143 x(94)#94 + 701 x(95)#95
     + 159 x(96)#96 + 336 x(97)#97 + 694 x(98)#98 + 105 x(99)#99
     + 419 x(100)#100 + 389 x(101)#101 + 609 x(102)#102 + 669 x(103)#103
     + 329 x(104)#104 + 147 x(105)#105 + 246 x(106)#106 + 719 x(107)#107
     + 845 x(108)#108 + 976 x(109)#109 + 801 x(110)#110 + 78 x(111)#111
     + 946 x(112)#112 + 606 x(113)#113 + 676 x(114)#114 + 37 x(115)#115
     + 839 x(116)#116 + 256 x(117)#117 + 24 x(118)#118 + 469 x(119)#119
     + x(120)#120 + 163 x(121)#121 + 294 x(122)#122 + 496 x(123)#123
     + 312 x(124)#124 + 804 x(125)#125 + 779 x(126)#126 + 348 x(127)#127
     + 851 x(128)#128 + 237 x(129)#129 + 719 x(130)#130 + 805 x(131)#131
     + 546 x(132)#132 + 767 x(133)#133 + 373 x(134)#134 + 682 x(135)#135
     + 799 x(136)#136 + 319 x(137)#137 + 408 x(138)#138 + 402 x(139)#139
     + 156 x(140)#140 + 992 x(141)#141 + 809 x(142)#142 + 583 x(143)#143
     + 435 x(144)#144 + 52 x(145)#145 + 610 x(146)#146 + 15 x(147)#147
     + 104 x(148)#148 + 826 x(149)#149 + 834 x(150)#150 + 82 x(151)#151
     + 183 x(152)#152 + 518 x(153)#153 + 479 x(154)#154 + 991 x(155)#155
     + 932 x(156)#156 + 123 x(157)#157 + 476 x(158)#158 + 852 x(159)#159
     + 55 x(160)#160 + 201 x(161)#161 + 760 x(162)#162 + 137 x(163)#163
     + 51 x(164)#164 + 15 x(165)#165 + 362 x(166)#166 + 628 x(167)#167
     + 11 x(168)#168 + 631 x(169)#169 + 782 x(170)#170 + 395 x(171)#171
     + 84 x(172)#172 + 724 x(173)#173 + 369 x(174)#174 + 132 x(175)#175
     + 448 x(176)#176 + 604 x(177)#177 + 188 x(178)#178 + 716 x(179)#179
     + 192 x(180)#180 + 53 x(181)#181 + 514 x(182)#182 + 368 x(183)#183
     + 902 x(184)#184 + 329 x(185)#185 + 264 x(186)#186 + 311 x(187)#187
     + 925 x(188)#188 + 633 x(189)#189 + 274 x(190)#190 + 900 x(191)#191
     + 418 x(192)#192 + 155 x(193)#193 + 648 x(194)#194 + 269 x(195)#195
     + 504 x(196)#196 + 683 x(197)#197 + 195 x(198)#198 + 877 x(199)#199
     + 756 x(200)#200 + 827 x(201)#201 + 297 x(202)#202 + 521 x(203)#203
     + 628 x(204)#204 + 906 x(205)#205 + 17 x(206)#206 + 885 x(207)#207
     + 496 x(208)#208 + 22 x(209)#209 + 776 x(210)#210 + 660 x(211)#211
     + 574 x(212)#212 + 593 x(213)#213 + 256 x(214)#214 + 857 x(215)#215
     + 735 x(216)#216 + 716 x(217)#217 + 732 x(218)#218 + 945 x(219)#219
     + 347 x(220)#220 + 254 x(221)#221 + 667 x(222)#222 + 893 x(223)#223
     + 853 x(224)#224 + 923 x(225)#225 + 519 x(226)#226 + 536 x(227)#227
     + 279 x(228)#228 + 533 x(229)#229 + 941 x(230)#230 + 580 x(231)#231
     + 91 x(232)#232 + 939 x(233)#233 + 954 x(234)#234 + 469 x(235)#235
     + 134 x(236)#236 + 948 x(237)#237 + 210 x(238)#238 + 555 x(239)#239
     + 892 x(240)#240 + 425 x(241)#241 + 816 x(242)#242 + 232 x(243)#243
     + 371 x(244)#244 + 78 x(245)#245 + 244 x(246)#246 + 93 x(247)#247
     + 450 x(248)#248 + 391 x(249)#249 <= 62935
 c3: 104 x(0)#0 + 84 x(1)#1 + 830 x(2)#2 + 418 x(3)#3 + 609 x(4)#4 + 854 x(5)#5
     + 1000 x(6)#6 + 920 x(7)#7 + 885 x(8)#8 + 674 x(9)#9 + 936 x(10)#10
     + 835 x(11)#11 + 129 x(12)#12 + 746 x(13)#13 + 336 x(14)#14 + 127 x(15)#15
     + 128 x(16)#16 + 862 x(17)#17 + 56 x(18)#18 + 232 x(19)#19 + 859 x(20)#20
     + 405 x(21)#21 + 140 x(22)#22 + 759 x(23)#23 + 51 x(24)#24 + 519 x(25)#25
     + 47 x(26)#26 + 115 x(27)#27 + 351 x(28)#28 + 707 x(29)#29 + 151 x(30)#30
     + 961 x(31)#31 + 837 x(32)#32 + 321 x(33)#33 + 957 x(34)#34 + 229 x(35)#35
     + 971 x(36)#36 + 287 x(37)#37 + 531 x(38)#38 + 156 x(39)#39 + 491 x(40)#40
     + 588 x(41)#41 + 148 x(42)#42 + 302 x(43)#43 + 976 x(44)#44 + 94 x(45)#45
     + 306 x(46)#46 + 678 x(47)#47 + 427 x(48)#48 + 29 x(49)#49 + 34 x(50)#50
     + 655 x(51)#51 + 564 x(52)#52 + 483 x(53)#53 + 544 x(54)#54 + 862 x(55)#55
     + 65 x(56)#56 + 10 x(57)#57 + 482 x(58)#58 + 290 x(59)#59 + 135 x(60)#60
     + 348 x(61)#61 + 901 x(62)#62 + 628 x(63)#63 + 996 x(64)#64 + 879 x(65)#65
     + 890 x(66)#66 + 838 x(67)#67 + 849 x(68)#68 + 249 x(69)#69 + 613 x(70)#70
     + 533 x(71)#71 + 992 x(72)#72 + 118 x(73)#73 + 467 x(74)#74 + 390 x(75)#75
     + 385 x(76)#76 + 665 x(77)#77 + 82 x(78)#78 + 938 x(79)#79 + 603 x(80)#80
     + 160 x(81)#81 + 54 x(82)#82 + 321 x(83)#83 + 149 x(84)#84 + 854 x(85)#85
     + 903 x(86)#86 + 168 x(87)#87 + 514 x(88)#88 + 360 x(89)#89 + 899 x(90)#90
     + 930 x(91)#91 + 614 x(92)#92 + 910 x(93)#93 + 796 x(94)#94 + 647 x(95)#95
     + 484 x(96)#96 + 455 x(97)#97 + 202 x(98)#98 + 71 x(99)#99
     + 491 x(100)#100 + 347 x(101)#101 + 447 x(102)#102 + 245 x(103)#103
     + 812 x(104)#104 + 734 x(105)#105 + 93 x(106)#106 + 763 x(107)#107
     + 716 x(108)#108 + 282 x(109)#109 + 776 x(110)#110 + 378 x(111)#111
     + 945 x(112)#112 + 618 x(113)#113 + 746 x(114)#114 + 310 x(115)#115
     + 358 x(116)#116 + 134 x(117)#117 + 282 x(118)#118 + 163 x(119)#119
     + 359 x(120)#120 + 393 x(121)#121 + 475 x(122)#122 + 338 x(123)#123
     + 491 x(124)#124 + 916 x(125)#125 + 662 x(126)#126 + 938 x(127)#127
     + 509 x(128)#128 + 608 x(129)#129 + 584 x(130)#130 + 726 x(131)#131
     + 905 x(132)#132 + 974 x(133)#133 + 193 x(134)#134 + 610 x(135)#135
     + 679 x(136)#136 + 615 x(137)#137 + 337 x(138)#138 + 597 x(139)#139
     + 17 x(140)#140 + 322 x(141)#141 + 459 x(142)#142 + 293 x(143)#143
     + 811 x(144)#144 + 697 x(145)#145 + 623 x(146)#146 + 910 x(147)#147
     + 623 x(148)#148 + 490 x(149)#149 + 8 x(150)#150 + 1000 x(151)#151
     + 630 x(152)#152 + 102 x(153)#153 + 426 x(154)#154 + 492 x(155)#155
     + 391 x(156)#156 + 596 x(157)#157 + 353 x(158)#158 + 476 x(159)#159
     + 815 x(160)#160 + 835 x(161)#161 + 602 x(162)#162 + 885 x(163)#163
     + 484 x(164)#164 + 537 x(165)#165 + 578 x(166)#166 + 77 x(167)#167
     + 697 x(168)#168 + 30 x(169)#169 + 160 x(170)#170 + 276 x(171)#171
     + 792 x(172)#172 + 712 x(173)#173 + 236 x(174)#174 + 645 x(175)#175
     + 403 x(176)#176 + 93 x(177)#177 + 76 x(178)#178 + 153 x(179)#179
     + 601 x(180)#180 + 874 x(181)#181 + 138 x(182)#182 + 888 x(183)#183
     + 969 x(184)#184 + 110 x(185)#185 + 919 x(186)#186 + 182 x(187)#187
     + 696 x(188)#188 + 502 x(189)#189 + 990 x(190)#190 + 599 x(191)#191
     + 291 x(192)#192 + 799 x(193)#193 + 473 x(194)#194 + 530 x(195)#195
     + 611 x(196)#196 + 765 x(197)#197 + 291 x(198)#198 + 150 x(199)#199
     + 738 x(200)#200 + 493 x(201)#201 + 634 x(202)#202 + 392 x(203)#203
     + 466 x(204)#204 + 92 x(205)#205 + 243 x(206)#206 + 912 x(207)#207
     + 456 x(208)#208 + 439 x(209)#209 + 146 x(210)#210 + 583 x(211)#211
     + 99 x(212)#212 + 255 x(213)#213 + 760 x(214)#214 + 161 x(215)#215
     + 15 x(216)#216 + 746 x(217)#217 + 3 x(218)#218 + 106 x(219)#219
     + 408 x(220)#220 + 738 x(221)#221 + 189 x(222)#222 + 537 x(223)#223
     + 823 x(224)#224 + 564 x(225)#225 + 60 x(226)#226 + 695 x(227)#227
     + 821 x(228)#228 + 169 x(229)#229 + 284 x(230)#230 + 462 x(231)#231
     + 283 x(232)#232 + 148 x(233)#233 + 14 x(234)#234 + 281 x(235)#235
     + 221 x(236)#236 + 495 x(237)#237 + 343 x(238)#238 + 240 x(239)#239
     + 314 x(240)#240 + 230 x(241)#241 + 217 x(242)#242 + 648 x(243)#243
     + 685 x(244)#244 + 920 x(245)#245 + 226 x(246)#246 + 980 x(247)#247
     + 553 x(248)#248 + 969 x(249)#249 <= 61563
 c4: 302 x(0)#0 + 470 x(1)#1 + 54 x(2)#2 + 426 x(3)#3 + 829 x(4)#4 + 43 x(5)#5
     + 141 x(6)#6 + 131 x(7)#7 + 572 x(8)#8 + 82 x(9)#9 + 877 x(10)#10
     + 45 x(11)#11 + 541 x(12)#12 + 235 x(13)#13 + 115 x(14)#14 + 538 x(15)#15
     + 134 x(16)#16 + 23 x(17)#17 + 91 x(18)#18 + 433 x(19)#19 + 897 x(20)#20
     + 595 x(21)#21 + 858 x(22)#22 + 202 x(23)#23 + 857 x(24)#24 + 76 x(25)#25
     + 311 x(26)#26 + 174 x(27)#27 + 383 x(28)#28 + 401 x(29)#29 + 133 x(30)#30
     + 444 x(31)#31 + 392 x(32)#32 + 459 x(33)#33 + 778 x(34)#34 + 235 x(35)#35
     + 519 x(36)#36 + 302 x(37)#37 + 580 x(38)#38 + 363 x(39)#39 + 633 x(40)#40
     + 140 x(41)#41 + 224 x(42)#42 + 706 x(43)#43 + 541 x(44)#44 + 822 x(45)#45
     + 90 x(46)#46 + 143 x(47)#47 + 471 x(48)#48 + 138 x(49)#49 + 867 x(50)#50
     + 200 x(51)#51 + 65 x(52)#52 + 306 x(53)#53 + 574 x(54)#54 + 420 x(55)#55
     + 745 x(56)#56 + 802 x(57)#57 + 154 x(58)#58 + 640 x(59)#59 + 576 x(60)#60
     + 304 x(61)#61 + 149 x(62)#62 + 698 x(63)#63 + 192 x(64)#64 + 697 x(65)#65
     + 484 x(66)#66 + 855 x(67)#67 + 667 x(68)#68 + 552 x(69)#69 + 12 x(70)#70
     + 365 x(71)#71 + 211 x(72)#72 + 61 x(73)#73 + 767 x(74)#74 + 551 x(75)#75
     + 261 x(76)#76 + 631 x(77)#77 + 368 x(78)#78 + 844 x(79)#79 + 924 x(80)#80
     + 657 x(81)#81 + 798 x(82)#82 + 414 x(83)#83 + 966 x(84)#84 + 525 x(85)#85
     + 488 x(86)#86 + 420 x(87)#87 + 674 x(88)#88 + 740 x(89)#89 + 76 x(90)#90
     + 191 x(91)#91 + 181 x(92)#92 + 393 x(93)#93 + 295 x(94)#94 + 964 x(95)#95
     + 271 x(96)#96 + 88 x(97)#97 + 460 x(98)#98 + 61 x(99)#99 + 176 x(100)#100
     + 626 x(101)#101 + 614 x(102)#102 + 336 x(103)#103 + 457 x(104)#104
     + 245 x(105)#105 + 331 x(106)#106 + 229 x(107)#107 + 708 x(108)#108
     + 198 x(109)#109 + 718 x(110)#110 + 688 x(111)#111 + 963 x(112)#112
     + 54 x(113)#113 + 282 x(114)#114 + 475 x(115)#115 + 522 x(116)#116
     + 69 x(117)#117 + 463 x(118)#118 + 137 x(119)#119 + 83 x(120)#120
     + 777 x(121)#121 + 399 x(122)#122 + 18 x(123)#123 + 69 x(124)#124
     + 36 x(125)#125 + 645 x(126)#126 + 105 x(127)#127 + 308 x(128)#128
     + 976 x(129)#129 + 755 x(130)#130 + 110 x(131)#131 + 679 x(132)#132
     + 252 x(133)#133 + 400 x(134)#134 + 181 x(135)#135 + 100 x(136)#136
     + 300 x(137)#137 + 195 x(138)#138 + 939 x(139)#139 + 619 x(140)#140
     + 418 x(141)#141 + 442 x(142)#142 + 892 x(143)#143 + 245 x(144)#144
     + 311 x(145)#145 + 177 x(146)#146 + 30 x(147)#147 + 147 x(148)#148
     + 40 x(149)#149 + 899 x(150)#150 + 907 x(151)#151 + 61 x(152)#152
     + 312 x(153)#153 + 362 x(154)#154 + 97 x(155)#155 + 377 x(156)#156
     + 889 x(157)#157 + 271 x(158)#158 + 457 x(159)#159 + 632 x(160)#160
     + 449 x(161)#161 + 568 x(162)#162 + 346 x(163)#163 + 608 x(164)#164
     + 982 x(165)#165 + 996 x(166)#166 + 203 x(167)#167 + 819 x(168)#168
     + 114 x(169)#169 + 863 x(170)#170 + 666 x(171)#171 + 762 x(172)#172
     + 781 x(173)#173 + 686 x(174)#174 + 839 x(175)#175 + 769 x(176)#176
     + 854 x(177)#177 + 562 x(178)#178 + 584 x(179)#179 + 985 x(180)#180
     + 671 x(181)#181 + 341 x(182)#182 + 771 x(183)#183 + 576 x(184)#184
     + 650 x(185)#185 + 197 x(186)#186 + 421 x(187)#187 + 969 x(188)#188
     + 503 x(189)#189 + 851 x(190)#190 + 685 x(191)#191 + 451 x(192)#192
     + 35 x(193)#193 + 555 x(194)#194 + 127 x(195)#195 + 890 x(196)#196
     + 960 x(197)#197 + 25 x(198)#198 + 874 x(199)#199 + 872 x(200)#200
     + 247 x(201)#201 + 991 x(202)#202 + 713 x(203)#203 + 401 x(204)#204
     + 366 x(205)#205 + 897 x(206)#206 + 314 x(207)#207 + 953 x(208)#208
     + 385 x(209)#209 + 669 x(210)#210 + 120 x(211)#211 + 981 x(212)#212
     + 554 x(213)#213 + 331 x(214)#214 + 632 x(215)#215 + 940 x(216)#216
     + 144 x(217)#217 + 521 x(218)#218 + 301 x(219)#219 + 276 x(220)#220
     + 24 x(221)#221 + 371 x(222)#222 + 692 x(223)#223 + 621 x(224)#224
     + 310 x(225)#225 + 828 x(226)#226 + 600 x(227)#227 + 182 x(228)#228
     + 458 x(229)#229 + 487 x(230)#230 + 67 x(231)#231 + 161 x(232)#232
     + 771 x(233)#233 + 460 x(234)#234 + 864 x(235)#235 + 63 x(236)#236
     + 381 x(237)#237 + 363 x(238)#238 + 36 x(239)#239 + 90 x(240)#240
     + 514 x(241)#241 + 954 x(242)#242 + 942 x(243)#243 + 807 x(244)#244
     + 105 x(245)#245 + 255 x(246)#246 + 98 x(247)#247 + 880 x(248)#248
     + 816 x(249)#249 <= 57776
 c5: 940 x(0)#0 + 66 x(1)#1 + 923 x(2)#2 + 187 x(3)#3 + 421 x(4)#4 + 247 x(5)#5
     + 109 x(6)#6 + 522 x(7)#7 + 419 x(8)#8 + 458 x(9)#9 + 940 x(10)#10
     + 340 x(11)#11 + 918 x(12)#12 + 589 x(13)#13 + 470 x(14)#14 + 966 x(15)#15
     + 68 x(16)#16 + 760 x(17)#17 + 773 x(18)#18 + 321 x(19)#19 + 676 x(20)#20
     + 357 x(21)#21 + 55 x(22)#22 + 663 x(23)#23 + 98 x(24)#24 + 139 x(25)#25
     + 399 x(26)#26 + 635 x(27)#27 + 568 x(28)#28 + 411 x(29)#29 + 773 x(30)#30
     + 971 x(31)#31 + 984 x(32)#32 + 363 x(33)#33 + 566 x(34)#34 + 87 x(35)#35
     + 595 x(36)#36 + 821 x(37)#37 + 764 x(38)#38 + 663 x(39)#39 + 585 x(40)#40
     + 951 x(41)#41 + 115 x(42)#42 + 294 x(43)#43 + 927 x(44)#44 + 881 x(45)#45
     + 233 x(46)#46 + 856 x(47)#47 + 841 x(48)#48 + 521 x(49)#49 + 586 x(50)#50
     + 884 x(51)#51 + 501 x(52)#52 + 566 x(53)#53 + 206 x(54)#54 + 625 x(55)#55
     + 395 x(56)#56 + 582 x(57)#57 + 724 x(58)#58 + 514 x(59)#59 + 566 x(60)#60
     + 976 x(61)#61 + 339 x(62)#62 + 818 x(63)#63 + 636 x(64)#64 + 321 x(65)#65
     + 661 x(66)#66 + 414 x(67)#67 + 860 x(68)#68 + 519 x(69)#69 + 849 x(70)#70
     + 164 x(71)#71 + 268 x(72)#72 + 807 x(73)#73 + 388 x(74)#74 + 136 x(75)#75
     + 728 x(76)#76 + 854 x(77)#77 + 992 x(78)#78 + 904 x(79)#79 + 490 x(80)#80
     + 354 x(81)#81 + 288 x(82)#82 + 284 x(83)#83 + 573 x(84)#84 + 118 x(85)#85
     + 176 x(86)#86 + 776 x(87)#87 + 903 x(88)#88 + 928 x(89)#89 + 479 x(90)#90
     + 237 x(91)#91 + 849 x(92)#92 + 907 x(93)#93 + 713 x(94)#94 + 379 x(95)#95
     + 104 x(96)#96 + 923 x(97)#97 + 855 x(98)#98 + 446 x(99)#99
     + 489 x(100)#100 + 380 x(101)#101 + 206 x(102)#102 + 507 x(103)#103
     + 334 x(104)#104 + 377 x(105)#105 + 471 x(106)#106 + 809 x(107)#107
     + 75 x(108)#108 + 285 x(109)#109 + 707 x(110)#110 + 624 x(111)#111
     + 647 x(112)#112 + 715 x(113)#113 + 693 x(114)#114 + 867 x(115)#115
     + 468 x(116)#116 + 102 x(117)#117 + 549 x(118)#118 + 396 x(119)#119
     + 597 x(120)#120 + 384 x(121)#121 + 624 x(122)#122 + 892 x(123)#123
     + 321 x(124)#124 + 179 x(125)#125 + 145 x(126)#126 + 583 x(127)#127
     + 980 x(128)#128 + 169 x(129)#129 + 597 x(130)#130 + 361 x(131)#131
     + 592 x(132)#132 + 76 x(133)#133 + 625 x(134)#134 + 843 x(135)#135
     + 870 x(136)#136 + 725 x(137)#137 + 340 x(138)#138 + 547 x(139)#139
     + 791 x(140)#140 + 117 x(141)#141 + 684 x(142)#142 + 663 x(143)#143
     + 169 x(144)#144 + 381 x(145)#145 + 113 x(146)#146 + 335 x(147)#147
     + 298 x(148)#148 + 77 x(149)#149 + 20 x(150)#150 + 277 x(151)#151
     + 141 x(152)#152 + 710 x(153)#153 + 150 x(154)#154 + 926 x(155)#155
     + 727 x(156)#156 + 705 x(157)#157 + 528 x(158)#158 + 870 x(159)#159
     + 81 x(160)#160 + 308 x(161)#161 + 830 x(162)#162 + 389 x(163)#163
     + 819 x(164)#164 + 984 x(165)#165 + 474 x(166)#166 + 67 x(167)#167
     + 653 x(168)#168 + 4 x(169)#169 + 234 x(170)#170 + 476 x(171)#171
     + 772 x(172)#172 + 231 x(173)#173 + 641 x(174)#174 + 948 x(175)#175
     + 598 x(176)#176 + 143 x(177)#177 + 126 x(178)#178 + 753 x(179)#179
     + 15 x(180)#180 + 236 x(181)#181 + 934 x(182)#182 + 419 x(183)#183
     + 191 x(184)#184 + 915 x(185)#185 + 10 x(186)#186 + 613 x(187)#187
     + 650 x(188)#188 + 332 x(189)#189 + 105 x(190)#190 + 888 x(191)#191
     + 445 x(192)#192 + 444 x(193)#193 + 227 x(194)#194 + 891 x(195)#195
     + 657 x(196)#196 + 112 x(197)#197 + 539 x(198)#198 + 285 x(199)#199
     + 913 x(200)#200 + 381 x(201)#201 + 122 x(202)#202 + 86 x(203)#203
     + 755 x(204)#204 + 906 x(205)#205 + 875 x(206)#206 + 152 x(207)#207
     + 936 x(208)#208 + 113 x(209)#209 + 34 x(210)#210 + 242 x(211)#211
     + 411 x(212)#212 + 634 x(213)#213 + 979 x(214)#214 + 798 x(215)#215
     + 556 x(216)#216 + 327 x(217)#217 + 956 x(218)#218 + 119 x(219)#219
     + 442 x(220)#220 + 773 x(221)#221 + 298 x(222)#222 + 29 x(223)#223
     + 34 x(224)#224 + 695 x(225)#225 + 796 x(226)#226 + 51 x(227)#227
     + 898 x(228)#228 + 170 x(229)#229 + 714 x(230)#230 + 111 x(231)#231
     + 36 x(232)#232 + 345 x(233)#233 + 235 x(234)#234 + 919 x(235)#235
     + 10 x(236)#236 + 822 x(237)#237 + 401 x(238)#238 + 620 x(239)#239
     + 102 x(240)#240 + 884 x(241)#241 + 710 x(242)#242 + 584 x(243)#243
     + 279 x(244)#244 + 336 x(245)#245 + 258 x(246)#246 + 134 x(247)#247
     + 731 x(248)#248 + 57 x(249)#249 <= 62918
Bounds
 0 <= x(0)#0 <= 1
 0 <= x(1)#1 <= 1
 0 <= x(2)#2 <= 1
 0 <= x(3)#3 <= 1
 0 <= x(4)#4 <= 1
 0 <= x(5)#5 <= 1
 0 <= x(6)#6 <= 1
 0 <= x(7)#7 <= 1
 0 <= x(8)#8 <= 1
 0 <= x(9)#9 <= 1
 0 <= x(10)#10 <= 1
 0 <= x(11)#11 <= 1
 0 <= x(12)#12 <= 1
 0 <= x(13)#13 <= 1
 0 <= x(14)#14 <= 1
 0 <= x(15)#15 <= 1
 0 <= x(16)#16 <= 1
 0 <= x(17)#17 <= 1
 0 <= x(18)#18 <= 1
 0 <= x(19)#19 <= 1
 0 <= x(20)#20 <= 1
 0 <= x(21)#21 <= 1
 0 <= x(22)#22 <= 1
 0 <= x(23)#23 <= 1
 0 <= x(24)#24 <= 1
 0 <= x(25)#25 <= 1
 0 <= x(26)#26 <= 1
 0 <= x(27)#27 <= 1
 0 <= x(28)#28 <= 1
 0 <= x(29)#29 <= 1
 0 <= x(30)#30 <= 1
 0 <= x(31)#31 <= 1
 0 <= x(32)#32 <= 1
 0 <= x(33)#33 <= 1
 0 <= x(34)#34 <= 1
 0 <= x(35)#35 <= 1
 0 <= x(36)#36 <= 1
 0 <= x(37)#37 <= 1
 0 <= x(38)#38 <= 1
 0 <= x(39)#39 <= 1
 0 <= x(40)#40 <= 1
 0 <= x(41)#41 <= 1
 0 <= x(42)#42 <= 1
 0 <= x(43)#43 <= 1
 0 <= x(44)#44 <= 1
 0 <= x(45)#45 <= 1
 0 <= x(46)#46 <= 1
 0 <= x(47)#47 <= 1
 0 <= x(48)#48 <= 1
 0 <= x(49)#49 <= 1
 0 <= x(50)#50 <= 1
 0 <= x(51)#51 <= 1
 0 <= x(52)#52 <= 1
 0 <= x(53)#53 <= 1
 0 <= x(54)#54 <= 1
 0 <= x(55)#55 <= 1
 0 <= x(56)#56 <= 1
 0 <= x(57)#57 <= 1
 0 <= x(58)#58 <= 1
 0 <= x(59)#59 <= 1
 0 <= x(60)#60 <= 1
 0 <= x(61)#61 <= 1
 0 <= x(62)#62 <= 1
 0 <= x(63)#63 <= 1
 0 <= x(64)#64 <= 1
 0 <= x(65)#65 <= 1
 0 <= x(66)#66 <= 1
 0 <= x(67)#67 <= 1
 0 <= x(68)#68 <= 1
 0 <= x(69)#69 <= 1
 0 <= x(70)#70 <= 1
 0 <= x(71)#71 <= 1
 0 <= x(72)#72 <= 1
 0 <= x(73)#73 <= 1
 0 <= x(74)#74 <= 1
 0 <= x(75)#75 <= 1
 0 <= x(76)#76 <= 1
 0 <= x(77)#77 <= 1
 0 <= x(78)#78 <= 1
 0 <= x(79)#79 <= 1
 0 <= x(80)#80 <= 1
 0 <= x(81)#81 <= 1
 0 <= x(82)#82 <= 1
 0 <= x(83)#83 <= 1
 0 <= x(84)#84 <= 1
 0 <= x(85)#85 <= 1
 0 <= x(86)#86 <= 1
 0 <= x(87)#87 <= 1
 0 <= x(88)#88 <= 1
 0 <= x(89)#89 <= 1
 0 <= x(90)#90 <= 1
 0 <= x(91)#91 <= 1
 0 <= x(92)#92 <= 1
 0 <= x(93)#93 <= 1
 0 <= x(94)#94 <= 1
 0 <= x(95)#95 <= 1
 0 <= x(96)#96 <= 1
 0 <= x(97)#97 <= 1
 0 <= x(98)#98 <= 1
 0 <= x(99)#99 <= 1
 0 <= x(100)#100 <= 1
 0 <= x(101)#101 <= 1
 0 <= x(102)#102 <= 1
 0 <= x(103)#103 <= 1
 0 <= x(104)#104 <= 1
 0 <= x(105)#105 <= 1
 0 <= x(106)#106 <= 1
 0 <= x(107)#107 <= 1
 0 <= x(108)#108 <= 1
 0 <= x(109)#109 <= 1
 0 <= x(110)#110 <= 1
 0 <= x(111)#111 <= 1
 0 <= x(112)#112 <= 1
 0 <= x(113)#113 <= 1
 0 <= x(114)#114 <= 1
 0 <= x(115)#115 <= 1
 0 <= x(116)#116 <= 1
 0 <= x(117)#117 <= 1
 0 <= x(118)#118 <= 1
 0 <= x(119)#119 <= 1
 0 <= x(120)#120 <= 1
 0 <= x(121)#121 <= 1
 0 <= x(122)#122 <= 1
 0 <= x(123)#123 <= 1
 0 <= x(124)#124 <= 1
 0 <= x(125)#125 <= 1
 0 <= x(126)#126 <= 1
 0 <= x(127)#127 <= 1
 0 <= x(128)#128 <= 1
 0 <= x(129)#129 <= 1
 0 <= x(130)#130 <= 1
 0 <= x(131)#131 <= 1
 0 <= x(132)#132 <= 1
 0 <= x(133)#133 <= 1
 0 <= x(134)#134 <= 1
 0 <= x(135)#135 <= 1
 0 <= x(136)#136 <= 1
 0 <= x(137)#137 <= 1
 0 <= x(138)#138 <= 1
 0 <= x(139)#139 <= 1
 0 <= x(140)#140 <= 1
 0 <= x(141)#141 <= 1
 0 <= x(142)#142 <= 1
 0 <= x(143)#143 <= 1
 0 <= x(144)#144 <= 1
 0 <= x(145)#145 <= 1
 0 <= x(146)#146 <= 1
 0 <= x(147)#147 <= 1
 0 <= x(148)#148 <= 1
 0 <= x(149)#149 <= 1
 0 <= x(150)#150 <= 1
 0 <= x(151)#151 <= 1
 0 <= x(152)#152 <= 1
 0 <= x(153)#153 <= 1
 0 <= x(154)#154 <= 1
 0 <= x(155)#155 <= 1
 0 <= x(156)#156 <= 1
 0 <= x(157)#157 <= 1
 0 <= x(158)#158 <= 1
 0 <= x(159)#159 <= 1
 0 <= x(160)#160 <= 1
 0 <= x(161)#161 <= 1
 0 <= x(162)#162 <= 1
 0 <= x(163)#163 <= 1
 0 <= x(164)#164 <= 1
 0 <= x(165)#165 <= 1
 0 <= x(166)#166 <= 1
 0 <= x(167)#167 <= 1
 0 <= x(168)#168 <= 1
 0 <= x(169)#169 <= 1
 0 <= x(170)#170 <= 1
 0 <= x(171)#171 <= 1
 0 <= x(172)#172 <= 1
 0 <= x(173)#173 <= 1
 0 <= x(174)#174 <= 1
 0 <= x(175)#175 <= 1
 0 <= x(176)#176 <= 1
 0 <= x(177)#177 <= 1
 0 <= x(178)#178 <= 1
 0 <= x(179)#179 <= 1
 0 <= x(180)#180 <= 1
 0 <= x(181)#181 <= 1
 0 <= x(182)#182 <= 1
 0 <= x(183)#183 <= 1
 0 <= x(184)#184 <= 1
 0 <= x(185)#185 <= 1
 0 <= x(186)#186 <= 1
 0 <= x(187)#187 <= 1
 0 <= x(188)#188 <= 1
 0 <= x(189)#189 <= 1
 0 <= x(190)#190 <= 1
 0 <= x(191)#191 <= 1
 0 <= x(192)#192 <= 1
 0 <= x(193)#193 <= 1
 0 <= x(194)#194 <= 1
 0 <= x(195)#195 <= 1
 0 <= x(196)#196 <= 1
 0 <= x(197)#197 <= 1
 0 <= x(198)#198 <= 1
 0 <= x(199)#199 <= 1
 0 <= x(200)#200 <= 1
 0 <= x(201)#201 <= 1
 0 <= x(202)#202 <= 1
 0 <= x(203)#203 <= 1
 0 <= x(204)#204 <= 1
 0 <= x(205)#205 <= 1
 0 <= x(206)#206 <= 1
 0 <= x(207)#207 <= 1
 0 <= x(208)#208 <= 1
 0 <= x(209)#209 <= 1
 0 <= x(210)#210 <= 1
 0 <= x(211)#211 <= 1
 0 <= x(212)#212 <= 1
 0 <= x(213)#213 <= 1
 0 <= x(214)#214 <= 1
 0 <= x(215)#215 <= 1
 0 <= x(216)#216 <= 1
 0 <= x(217)#217 <= 1
 0 <= x(218)#218 <= 1
 0 <= x(219)#219 <= 1
 0 <= x(220)#220 <= 1
 0 <= x(221)#221 <= 1
 0 <= x(222)#222 <= 1
 0 <= x(223)#223 <= 1
 0 <= x(224)#224 <= 1
 0 <= x(225)#225 <= 1
 0 <= x(226)#226 <= 1
 0 <= x(227)#227 <= 1
 0 <= x(228)#228 <= 1
 0 <= x(229)#229 <= 1
 0 <= x(230)#230 <= 1
 0 <= x(231)#231 <= 1
 0 <= x(232)#232 <= 1
 0 <= x(233)#233 <= 1
 0 <= x(234)#234 <= 1
 0 <= x(235)#235 <= 1
 0 <= x(236)#236 <= 1
 0 <= x(237)#237 <= 1
 0 <= x(238)#238 <= 1
 0 <= x(239)#239 <= 1
 0 <= x(240)#240 <= 1
 0 <= x(241)#241 <= 1
 0 <= x(242)#242 <= 1
 0 <= x(243)#243 <= 1
 0 <= x(244)#244 <= 1
 0 <= x(245)#245 <= 1
 0 <= x(246)#246 <= 1
 0 <= x(247)#247 <= 1
 0 <= x(248)#248 <= 1
 0 <= x(249)#249 <= 1
Generals
 x(0)#0  x(1)#1  x(2)#2  x(3)#3  x(4)#4  x(5)#5  x(6)#6  x(7)#7  x(8)#8 
 x(9)#9  x(10)#10  x(11)#11  x(12)#12  x(13)#13  x(14)#14  x(15)#15  x(16)#16 
 x(17)#17  x(18)#18  x(19)#19  x(20)#20  x(21)#21  x(22)#22  x(23)#23 
 x(24)#24  x(25)#25  x(26)#26  x(27)#27  x(28)#28  x(29)#29  x(30)#30 
 x(31)#31  x(32)#32  x(33)#33  x(34)#34  x(35)#35  x(36)#36  x(37)#37 
 x(38)#38  x(39)#39  x(40)#40  x(41)#41  x(42)#42  x(43)#43  x(44)#44 
 x(45)#45  x(46)#46  x(47)#47  x(48)#48  x(49)#49  x(50)#50  x(51)#51 
 x(52)#52  x(53)#53  x(54)#54  x(55)#55  x(56)#56  x(57)#57  x(58)#58 
 x(59)#59  x(60)#60  x(61)#61  x(62)#62  x(63)#63  x(64)#64  x(65)#65 
 x(66)#66  x(67)#67  x(68)#68  x(69)#69  x(70)#70  x(71)#71  x(72)#72 
 x(73)#73  x(74)#74  x(75)#75  x(76)#76  x(77)#77  x(78)#78  x(79)#79 
 x(80)#80  x(81)#81  x(82)#82  x(83)#83  x(84)#84  x(85)#85  x(86)#86 
 x(87)#87  x(88)#88  x(89)#89  x(90)#90  x(91)#91  x(92)#92  x(93)#93 
 x(94)#94  x(95)#95  x(96)#96  x(97)#97  x(98)#98  x(99)#99  x(100)#100 
 x(101)#101  x(102)#102  x(103)#103  x(104)#104  x(105)#105  x(106)#106 
 x(107)#107  x(108)#108  x(109)#109  x(110)#110  x(111)#111  x(112)#112 
 x(113)#113  x(114)#114  x(115)#115  x(116)#116  x(117)#117  x(118)#118 
 x(119)#119  x(120)#120  x(121)#121  x(122)#122  x(123)#123  x(124)#124 
 x(125)#125  x(126)#126  x(127)#127  x(128)#128  x(129)#129  x(130)#130 
 x(131)#131  x(132)#132  x(133)#133  x(134)#134  x(135)#135  x(136)#136 
 x(137)#137  x(138)#138  x(139)#139  x(140)#140  x(141)#141  x(142)#142 
 x(143)#143  x(144)#144  x(145)#145  x(146)#146  x(147)#147  x(148)#148 
 x(149)#149  x(150)#150  x(151)#151  x(152)#152  x(153)#153  x(154)#154 
 x(155)#155  x(156)#156  x(157)#157  x(158)#158  x(159)#159  x(160)#160 
 x(161)#161  x(162)#162  x(163)#163  x(164)#164  x(165)#165  x(166)#166 
 x(167)#167  x(168)#168  x(169)#169  x(170)#170  x(171)#171  x(172)#172 
 x(173)#173  x(174)#174  x(175)#175  x(176)#176  x(177)#177  x(178)#178 
 x(179)#179  x(180)#180  x(181)#181  x(182)#182  x(183)#183  x(184)#184 
 x(185)#185  x(186)#186  x(187)#187  x(188)#188  x(189)#189  x(190)#190 
 x(191)#191  x(192)#192  x(193)#193  x(194)#194  x(195)#195  x(196)#196 
 x(197)#197  x(198)#198  x(199)#199  x(200)#200  x(201)#201  x(202)#202 
 x(203)#203  x(204)#204  x(205)#205  x(206)#206  x(207)#207  x(208)#208 
 x(209)#209  x(210)#210  x(211)#211  x(212)#212  x(213)#213  x(214)#214 
 x(215)#215  x(216)#216  x(217)#217  x(218)#218  x(219)#219  x(220)#220 
 x(221)#221  x(222)#222  x(223)#223  x(224)#224  x(225)#225  x(226)#226 
 x(227)#227  x(228)#228  x(229)#229  x(230)#230  x(231)#231  x(232)#232 
 x(233)#233  x(234)#234  x(235)#235  x(236)#236  x(237)#237  x(238)#238 
 x(239)#239  x(240)#240  x(241)#241  x(242)#242  x(243)#243  x(244)#244 
 x(245)#245  x(246)#246  x(247)#247  x(248)#248  x(249)#249 
End
